%nprocshared=16
%chk=isomer1_S0.chk
# freq=(SelectNormalModes, SaveNormalModes) cam-b3lyp/def2tzvp

C11H7+

1 1
6        1.967424       -1.363433       -0.000265
6        0.774103       -2.110386       -0.000154
6       -0.437785       -1.242412       -0.000037
6        0.120514        0.000003       -0.000122
6        1.609424        0.000183       -0.000251
6        1.967121        1.363774       -0.000188
1       -2.428321       -2.169782        0.000303
1        2.965389       -1.795222       -0.000337
1        0.760173       -3.203823       -0.000089
6       -1.839648       -1.252226        0.000214
6       -0.438075        1.242343        0.000045
6       -1.839927        1.251898        0.000292
6       -2.491742       -0.000241        0.000352
1        0.759416        3.203945        0.000122
1       -2.428775        2.169339        0.000446
1       -3.582471       -0.000365        0.000540
6        0.773530        2.110505       -0.000011
1        2.964956        1.795868       -0.000241

