#n B3LYP/6-31G(d) Opt

 Title

0 1
C         -3.96999        0.99173       -0.09734
C         -3.92438       -0.40460        0.05801
C         -2.70111       -1.07587        0.12726
C         -1.54164       -0.32478        0.03837
C         -1.58580        1.06699       -0.11640
C         -2.79213        1.73966       -0.18592
C         -0.11507       -0.77831        0.08240
C          0.60905        0.53893       -0.06737
H          0.11686       -1.44827       -0.75032
H          0.12492       -1.24920        1.03985
C         -0.22892        1.58230       -0.17976
H          1.68687        0.61712       -0.08080
H          0.02898        2.62209       -0.29657
H         -4.85269       -0.96717        0.12487
H         -2.66540       -2.15337        0.24712
H         -2.82844        2.81686       -0.30574
H         -4.93261        1.49479       -0.14906

